m = 20;
n = 10;
available = [33, 50, 49, 35, 31, 41, 41, 39, 44, 44];
value = [45, 35, 37, 42, 38, 51, 31, 35, 36, 39];
npref = [3, 5, 8, 10, 2, 4, 8, 3, 4, 4, 4, 1, 9, 4, 10, 10, 4, 3, 3, 2];
good_pref = [10, 2, 10, 5, 6, 10, 2, 2, 4, 7, 5, 7, 3, 2, 3, 3, 1, 7, 2, 3, 4, 1, 1, 3, 9, 9, 4, 7, 5, 5, 8, 4, 5, 7, 6, 9, 6, 2, 7, 2, 5, 6, 1, 4, 8, 4, 9, 10, 1, 1, 2, 4, 2, 5, 9, 9, 6, 10, 3, 5, 8, 6, 5, 5, 5, 3, 7, 10, 4, 2, 5, 1, 5, 10, 9, 1, 4, 4, 5, 8, 2, 10, 2, 3, 2, 7, 10, 4, 3, 9, 6, 8, 2, 1, 4, 4, 5, 5, 3, 9, 7];
req_pref = [13, 12, 17, 12, 14, 15, 17, 13, 13, 15, 14, 13, 11, 12, 17, 12, 11, 13, 11, 14, 13, 17, 16, 15, 13, 13, 15, 16, 13, 13, 16, 14, 11, 12, 13, 12, 12, 11, 16, 15, 11, 16, 12, 15, 13, 17, 17, 16, 15, 11, 10, 13, 10, 11, 11, 16, 12, 12, 10, 13, 12, 14, 14, 15, 15, 16, 15, 13, 15, 11, 12, 13, 16, 18, 11, 13, 14, 13, 15, 13, 14, 11, 11, 13, 15, 13, 13, 12, 17, 15, 12, 11, 14, 14, 13, 14, 16, 11, 14, 15, 10];
